
%number of servers
V_ = 3;

% number of Movies
M_ = 5;

% standard cost of sending 1 MB over 1km
CTR = 1;

max_instances = 30;
%target_pB = 1;
%lambda = 5;

% storage capacity of server v 
RS = array1d (1..V_, [99, 99, 99]);

% outgoing transmittion capacity of server v
RT_OUT = array1d (1..V_, [99, 99, 99]);

% movie size
HS = array1d (1..M_, [20,15,10,10,10]);

%movie bitrate
HB = array1d (1..M_, [2,2,2,2,2]);

%movie popularity from each server
HP = array2d (1..V_,1..M_, [
10,2,1,1,2,
2,30,2,2,2,
1,2,10,2,1]);

%edge distances
ED = array2d (1..V_, 1..V_, [
0, 20, 20,
20, 0, 20,
20, 20, 0]);


%allocation cost
CA = array2d (1..V_, 1..M_, [
300, 300, 100, 300, 100,
300, 100, 300, 100, 100,
100, 300, 100, 100, 300]);

%instance cost
CI = array1d (1..V_, [1, 1, 1]);

erlang_table = array1d(1..max_instances, [
%101, 1526, 4555, 8694, 13610, 19090, 25010, 31280, 37830, 44610]);
 101, 1525, 4554, 8694, 13607, 19090, 25009, 31275, 37825, 44610, 51599, 58759, 66072, 73516, 81081, 88750, 96515, 104370, 112300, 120306, 128379, 136512, 144702, 152950, 161247, 169586, 177974, 186401, 194869, 203372]);


